
******************************************************************************
This program contains Ipopt, a library for large-scale nonlinear optimization.
 Ipopt is released as open source code under the Eclipse Public License (EPL).
         For more information visit http://projects.coin-or.org/Ipopt

This version of Ipopt was compiled from source code available at
    https://github.com/IDAES/Ipopt as part of the Institute for the Design of
    Advanced Energy Systems Process Systems Engineering Framework (IDAES PSE
    Framework) Copyright (c) 2018-2019. See https://github.com/IDAES/idaes-pse.

This version of Ipopt was compiled using HSL, a collection of Fortran codes
    for large-scale scientific computation.  All technical papers, sales and
    publicity material resulting from use of the HSL codes within IPOPT must
    contain the following acknowledgement:
        HSL, a collection of Fortran codes for large-scale scientific
        computation. See http://www.hsl.rl.ac.uk.
******************************************************************************

This is Ipopt version 3.13.2, running with linear solver ma27.

Number of nonzeros in equality constraint Jacobian...:      808
Number of nonzeros in inequality constraint Jacobian.:        0
Number of nonzeros in Lagrangian Hessian.............:      702

Total number of variables............................:      351
                     variables with only lower bounds:      108
                variables with lower and upper bounds:      189
                     variables with only upper bounds:        0
Total number of equality constraints.................:      350
Total number of inequality constraints...............:        0
        inequality constraints with only lower bounds:        0
   inequality constraints with lower and upper bounds:        0
        inequality constraints with only upper bounds:        0

iter    objective    inf_pr   inf_du lg(mu)  ||d||  lg(rg) alpha_du alpha_pr  ls
   0  0.0000000e+00 4.42e-01 8.88e-16  -1.0 0.00e+00    -  0.00e+00 0.00e+00   0
   1  3.4519793e-01 3.82e-01 1.37e+03  -1.0 2.59e+05    -  6.93e-01 1.39e-01h  1
   2  4.0192808e-01 3.78e-01 1.43e+03  -1.0 2.80e+05    -  7.18e-01 1.25e-02h  1
   3  2.3352303e+01 5.92e-02 1.15e+04  -1.0 2.84e+05    -  7.25e-01 9.90e-01h  1
   4  3.1104337e+01 2.29e-03 3.18e+02  -1.0 5.05e+04    -  9.43e-01 9.90e-01h  1
   5  3.1380474e+01 2.56e-05 2.49e+00  -1.0 1.75e+03    -  9.90e-01 9.90e-01h  1
   6  3.1381403e+01 2.52e-05 1.15e+07  -1.0 7.33e+02    -  9.90e-01 1.55e-02f  7
   7  3.1385045e+01 2.44e-05 2.26e+07  -1.0 1.47e+03    -  9.90e-01 3.09e-02f  6
   8  3.1499790e+01 8.49e-05 3.49e+05  -1.0 1.46e+03    -  1.00e+00 9.90e-01H  1
   9  3.1499459e+01 8.37e-07 1.23e+07  -1.0 4.65e+00    -  1.00e+00 9.90e-01h  1
iter    objective    inf_pr   inf_du lg(mu)  ||d||  lg(rg) alpha_du alpha_pr  ls
  10  3.1499458e+01 8.37e-09 1.23e+09  -1.0 9.53e-03    -  1.00e+00 9.90e-01h  1
  11  3.1499458e+01 8.36e-11 1.23e+11  -1.0 9.59e-05    -  1.00e+00 9.90e-01h  1
In iteration 11, 27 Slacks too small, adjusting variable bounds
  12  3.1499458e+01 2.32e-12 1.23e+13  -1.0 1.79e-06    -  1.00e+00 9.90e-01h  1
  13  3.1499458e+01 1.02e-12 9.15e+14  -1.0 3.67e-07    -  1.00e+00 2.50e-01h  3
  14  3.1499458e+01 1.21e-12 8.00e+14  -1.0 5.74e-07    -  1.00e+00 1.25e-01h  4
  15  3.1499458e+01 1.16e-12 4.00e+14  -1.0 3.07e-07    -  1.00e+00 5.00e-01h  2
  16  3.1499458e+01 1.45e-12 4.00e+14  -1.0 1.27e-07    -  1.00e+00 9.77e-04h 11
  17  3.1499458e+01 4.23e-12 7.03e-02  -1.0 1.29e-07    -  1.00e+00 1.00e+00s 22
  18  3.1383418e+01 1.01e-03 1.62e+00  -9.0 1.75e+03    -  8.50e-01 8.50e-01s 22
  19  3.1382133e+01 1.43e-08 5.17e-04  -9.0 1.57e+01    -  1.00e+00 1.00e+00s 22
iter    objective    inf_pr   inf_du lg(mu)  ||d||  lg(rg) alpha_du alpha_pr  ls
  20  3.1382133e+01 4.02e-12 3.26e-09  -9.0 9.62e-05    -  1.00e+00 1.00e+00s 22

Number of Iterations....: 20

                                   (scaled)                 (unscaled)
Objective...............:   3.1382133315906582e+01    3.1382133315906582e+01
Dual infeasibility......:   3.2596290111541748e-09    3.2596290111541748e-09
Constraint violation....:   4.0212277951923170e-12    4.0212277951923170e-12
Complementarity.........:   9.0916478089299646e-10    9.0916478089299646e-10
Overall NLP error.......:   4.4591904108606816e-11    3.2596290111541748e-09


Number of objective function evaluations             = 81
Number of objective gradient evaluations             = 21
Number of equality constraint evaluations            = 81
Number of inequality constraint evaluations          = 0
Number of equality constraint Jacobian evaluations   = 21
Number of inequality constraint Jacobian evaluations = 0
Number of Lagrangian Hessian evaluations             = 20
Total CPU secs in IPOPT (w/o function evaluations)   =      0.039
Total CPU secs in NLP function evaluations           =      0.644

EXIT: Optimal Solution Found.
